9 20
1 2 1
1 3 1
1 4 0
1 5 1
1 6 0
1 7 1
1 8 1
1 9 1
2 3 0
2 4 1
2 5 0
2 6 1
2 7 1
2 8 1
2 9 0
3 4 1
3 5 1
3 6 0
3 7 0
3 8 1
3 9 1
4 5 1
4 6 0
4 7 0
4 8 1
4 9 0
5 6 1
5 7 0
5 8 0
5 9 1
6 7 1
6 8 0
6 9 1
7 8 0
7 9 0
8 9 0
